N = 96;
M = 460;
Edge_Start = [1, 1, 2, 3, 3, 4, 4, 5, 6, 6, 7, 7, 7, 8, 8, 9, 10, 11, 11, 11, 12, 12, 13, 13, 13, 14, 14, 15, 15, 15, 16, 17, 17, 18, 19, 19, 19, 20, 20, 20, 21, 21, 21, 22, 22, 22, 23, 23, 23, 24, 24, 24, 25, 25, 25, 25, 26, 26, 26, 27, 27, 27, 28, 28, 28, 29, 30, 30, 30, 31, 31, 31, 32, 32, 32, 33, 33, 34, 34, 35, 35, 36, 37, 37, 37, 37, 38, 38, 38, 39, 40, 40, 40, 41, 41, 41, 42, 42, 42, 43, 43, 44, 44, 45, 45, 46, 46, 47, 47, 47, 48, 48, 48, 49, 49, 50, 50, 50, 51, 51, 52, 52, 53, 53, 53, 54, 55, 55, 55, 56, 56, 56, 57, 58, 59, 59, 60, 60, 61, 61, 61, 62, 62, 62, 63, 63, 63, 64, 64, 65, 65, 65, 66, 66, 66, 66, 67, 67, 67, 68, 68, 68, 69, 69, 70, 70, 71, 71, 71, 72, 72, 72, 73, 73, 74, 74, 75, 75, 76, 76, 76, 77, 77, 77, 78, 78, 78, 79, 79, 79, 80, 80, 81, 81, 81, 82, 82, 82, 83, 83, 84, 84, 84, 85, 85, 85, 86, 86, 86, 87, 88, 89, 89, 90, 90, 91, 91, 91, 92, 92, 93, 93, 93, 94, 95, 95, 95, 96, 96, 96, 72, 96, 96, 85, 86, 42, 57, 87, 55, 89, 66, 91, 95, 31, 33, 39, 75, 16, 32, 33, 20, 43, 21, 80, 85, 64, 71, 22, 41, 80, 18, 12, 19, 9, 17, 20, 22, 12, 19, 24, 13, 22, 24, 15, 19, 21, 25, 75, 76, 20, 21, 26, 23, 48, 49, 50, 24, 43, 85, 59, 60, 63, 44, 61, 63, 38, 44, 59, 63, 8, 32, 37, 11, 31, 68, 9, 11, 71, 82, 37, 86, 40, 31, 35, 38, 86, 29, 37, 95, 62, 36, 62, 90, 15, 72, 96, 4, 17, 84, 8, 26, 28, 30, 46, 70, 45, 78, 48, 50, 78, 25, 47, 64, 25, 87, 25, 47, 53, 55, 83, 10, 61, 50, 56, 79, 69, 5, 51, 88, 53, 60, 76, 58, 6, 27, 30, 27, 56, 28, 52, 76, 39, 40, 67, 27, 28, 30, 14, 48, 66, 67, 68, 7, 65, 67, 68, 62, 65, 66, 32, 65, 66, 54, 79, 45, 77, 14, 34, 74, 1, 41, 84, 74, 81, 71, 73, 23, 49, 23, 56, 61, 70, 78, 79, 46, 47, 77, 53, 69, 77, 13, 15, 73, 82, 84, 34, 81, 83, 42, 82, 42, 72, 81, 3, 13, 26, 3, 35, 37, 51, 89, 6, 88, 40, 91, 7, 90, 92, 91, 93, 92, 94, 95, 93, 7, 38, 93, 1, 2, 41];
Edge_End = [72, 96, 96, 85, 86, 42, 57, 87, 55, 89, 66, 91, 95, 31, 33, 39, 75, 16, 32, 33, 20, 43, 21, 80, 85, 64, 71, 22, 41, 80, 18, 12, 19, 9, 17, 20, 22, 12, 19, 24, 13, 22, 24, 15, 19, 21, 25, 75, 76, 20, 21, 26, 23, 48, 49, 50, 24, 43, 85, 59, 60, 63, 44, 61, 63, 38, 44, 59, 63, 8, 32, 37, 11, 31, 68, 9, 11, 71, 82, 37, 86, 40, 31, 35, 38, 86, 29, 37, 95, 62, 36, 62, 90, 15, 72, 96, 4, 17, 84, 8, 26, 28, 30, 46, 70, 45, 78, 48, 50, 78, 25, 47, 64, 25, 87, 25, 47, 53, 55, 83, 10, 61, 50, 56, 79, 69, 5, 51, 88, 53, 60, 76, 58, 6, 27, 30, 27, 56, 28, 52, 76, 39, 40, 67, 27, 28, 30, 14, 48, 66, 67, 68, 7, 65, 67, 68, 62, 65, 66, 32, 65, 66, 54, 79, 45, 77, 14, 34, 74, 1, 41, 84, 74, 81, 71, 73, 23, 49, 23, 56, 61, 70, 78, 79, 46, 47, 77, 53, 69, 77, 13, 15, 73, 82, 84, 34, 81, 83, 42, 82, 42, 72, 81, 3, 13, 26, 3, 35, 37, 51, 89, 6, 88, 40, 91, 7, 90, 92, 91, 93, 92, 94, 95, 93, 7, 38, 93, 1, 2, 41, 1, 1, 2, 3, 3, 4, 4, 5, 6, 6, 7, 7, 7, 8, 8, 9, 10, 11, 11, 11, 12, 12, 13, 13, 13, 14, 14, 15, 15, 15, 16, 17, 17, 18, 19, 19, 19, 20, 20, 20, 21, 21, 21, 22, 22, 22, 23, 23, 23, 24, 24, 24, 25, 25, 25, 25, 26, 26, 26, 27, 27, 27, 28, 28, 28, 29, 30, 30, 30, 31, 31, 31, 32, 32, 32, 33, 33, 34, 34, 35, 35, 36, 37, 37, 37, 37, 38, 38, 38, 39, 40, 40, 40, 41, 41, 41, 42, 42, 42, 43, 43, 44, 44, 45, 45, 46, 46, 47, 47, 47, 48, 48, 48, 49, 49, 50, 50, 50, 51, 51, 52, 52, 53, 53, 53, 54, 55, 55, 55, 56, 56, 56, 57, 58, 59, 59, 60, 60, 61, 61, 61, 62, 62, 62, 63, 63, 63, 64, 64, 65, 65, 65, 66, 66, 66, 66, 67, 67, 67, 68, 68, 68, 69, 69, 70, 70, 71, 71, 71, 72, 72, 72, 73, 73, 74, 74, 75, 75, 76, 76, 76, 77, 77, 77, 78, 78, 78, 79, 79, 79, 80, 80, 81, 81, 81, 82, 82, 82, 83, 83, 84, 84, 84, 85, 85, 85, 86, 86, 86, 87, 88, 89, 89, 90, 90, 91, 91, 91, 92, 92, 93, 93, 93, 94, 95, 95, 95, 96, 96, 96];
L = [92, 51, 98, 72, 76, 10, 35, 9, 201, 52, 40, 39, 78, 28, 20, 109, 137, 58, 16, 13, 58, 57, 49, 151, 51, 42, 91, 49, 53, 9, 53, 160, 63, 100, 63, 160, 52, 58, 160, 22, 49, 159, 31, 49, 52, 159, 168, 32, 32, 22, 31, 49, 168, 151, 36, 27, 49, 80, 81, 9, 50, 59, 30, 32, 31, 87, 28, 24, 30, 28, 21, 127, 16, 21, 85, 214, 13, 34, 90, 86, 87, 43, 127, 86, 25, 43, 87, 25, 32, 18, 43, 184, 26, 53, 37, 5, 10, 59, 88, 254, 80, 30, 28, 28, 27, 28, 65, 67, 55, 66, 151, 67, 65, 36, 150, 27, 55, 45, 9, 190, 67, 104, 45, 57, 65, 25, 7, 9, 51, 57, 59, 64, 71, 20, 9, 24, 50, 59, 32, 104, 47, 18, 184, 153, 59, 31, 30, 42, 65, 55, 62, 18, 40, 55, 108, 112, 153, 62, 108, 85, 18, 112, 25, 95, 27, 72, 91, 34, 27, 92, 37, 39, 156, 65, 27, 156, 32, 169, 32, 64, 47, 72, 50, 51, 65, 66, 50, 65, 95, 51, 151, 9, 65, 67, 78, 90, 67, 92, 137, 92, 88, 39, 78, 72, 51, 81, 76, 87, 43, 7, 201, 52, 201, 26, 39, 39, 39, 46, 46, 111, 111, 37, 37, 37, 78, 32, 37, 51, 98, 5, 92, 51, 98, 72, 76, 10, 35, 9, 201, 52, 40, 39, 78, 28, 20, 109, 137, 58, 16, 13, 58, 57, 49, 151, 51, 42, 91, 49, 53, 9, 53, 160, 63, 100, 63, 160, 52, 58, 160, 22, 49, 159, 31, 49, 52, 159, 168, 32, 32, 22, 31, 49, 168, 151, 36, 27, 49, 80, 81, 9, 50, 59, 30, 32, 31, 87, 28, 24, 30, 28, 21, 127, 16, 21, 85, 214, 13, 34, 90, 86, 87, 43, 127, 86, 25, 43, 87, 25, 32, 18, 43, 184, 26, 53, 37, 5, 10, 59, 88, 254, 80, 30, 28, 28, 27, 28, 65, 67, 55, 66, 151, 67, 65, 36, 150, 27, 55, 45, 9, 190, 67, 104, 45, 57, 65, 25, 7, 9, 51, 57, 59, 64, 71, 20, 9, 24, 50, 59, 32, 104, 47, 18, 184, 153, 59, 31, 30, 42, 65, 55, 62, 18, 40, 55, 108, 112, 153, 62, 108, 85, 18, 112, 25, 95, 27, 72, 91, 34, 27, 92, 37, 39, 156, 65, 27, 156, 32, 169, 32, 64, 47, 72, 50, 51, 65, 66, 50, 65, 95, 51, 151, 9, 65, 67, 78, 90, 67, 92, 137, 92, 88, 39, 78, 72, 51, 81, 76, 87, 43, 7, 201, 52, 201, 26, 39, 39, 39, 46, 46, 111, 111, 37, 37, 37, 78, 32, 37, 51, 98, 5];
T = [13, 7, 9, 10, 10, 1, 2, 0, 14, 7, 5, 5, 11, 4, 1, 8, 10, 8, 2, 1, 8, 4, 7, 21, 7, 6, 13, 7, 7, 1, 7, 11, 9, 14, 9, 22, 7, 8, 22, 3, 7, 22, 4, 7, 7, 22, 24, 4, 4, 3, 4, 7, 24, 21, 5, 3, 7, 11, 11, 1, 7, 8, 4, 4, 4, 12, 4, 3, 4, 4, 3, 18, 2, 3, 12, 15, 1, 4, 12, 12, 12, 6, 18, 12, 3, 6, 12, 3, 4, 2, 6, 26, 3, 7, 3, 0, 1, 4, 8, 18, 11, 4, 4, 4, 4, 4, 9, 9, 7, 9, 21, 9, 9, 5, 11, 3, 7, 6, 0, 13, 6, 14, 6, 8, 9, 3, 0, 0, 5, 8, 8, 9, 5, 1, 1, 3, 7, 8, 4, 14, 6, 2, 26, 21, 8, 4, 4, 6, 9, 8, 8, 2, 5, 8, 15, 16, 21, 8, 15, 12, 2, 16, 3, 13, 4, 10, 13, 4, 3, 13, 3, 4, 22, 9, 3, 22, 4, 12, 4, 9, 6, 10, 7, 7, 9, 9, 7, 9, 13, 7, 21, 1, 9, 9, 11, 12, 9, 13, 10, 13, 8, 4, 11, 10, 7, 11, 10, 12, 6, 0, 28, 7, 28, 3, 5, 5, 5, 6, 6, 15, 15, 5, 5, 5, 11, 4, 5, 7, 9, 0, 13, 7, 9, 10, 10, 1, 2, 0, 14, 7, 5, 5, 11, 4, 1, 8, 10, 8, 2, 1, 8, 4, 7, 21, 7, 6, 13, 7, 7, 1, 7, 11, 9, 14, 9, 22, 7, 8, 22, 3, 7, 22, 4, 7, 7, 22, 24, 4, 4, 3, 4, 7, 24, 21, 5, 3, 7, 11, 11, 1, 7, 8, 4, 4, 4, 12, 4, 3, 4, 4, 3, 18, 2, 3, 12, 15, 1, 4, 12, 12, 12, 6, 18, 12, 3, 6, 12, 3, 4, 2, 6, 26, 3, 7, 3, 0, 1, 4, 8, 18, 11, 4, 4, 4, 4, 4, 9, 9, 7, 9, 21, 9, 9, 5, 11, 3, 7, 6, 0, 13, 6, 14, 6, 8, 9, 3, 0, 0, 5, 8, 8, 9, 5, 1, 1, 3, 7, 8, 4, 14, 6, 2, 26, 21, 8, 4, 4, 6, 9, 8, 8, 2, 5, 8, 15, 16, 21, 8, 15, 12, 2, 16, 3, 13, 4, 10, 13, 4, 3, 13, 3, 4, 22, 9, 3, 22, 4, 12, 4, 9, 6, 10, 7, 7, 9, 9, 7, 9, 13, 7, 21, 1, 9, 9, 11, 12, 9, 13, 10, 13, 8, 4, 11, 10, 7, 11, 10, 12, 6, 0, 28, 7, 28, 3, 5, 5, 5, 6, 6, 15, 15, 5, 5, 5, 11, 4, 5, 7, 9, 0];
Lower_Bound = [70, 72, 99, 49, 25, 57, 116, 85, 101, 43, 87, 63, 85, 37, 70, 95, 52, 102, 61, 71, 78, 68, 21, 74, 9, 78, 23, 27, 122, 27, 89, 89, 86, 54, 119, 135, 107, 110, 109, 129, 63, 48, 67, 31, 30, 31, 13, 22, 14, 6, 25, 37, 0, 25, 25, 8, 51, 56, 24, 16, 23, 111, 31, 31, 103, 111, 111, 101, 22, 26, 50, 60, 69, 53, 25, 17, 16, 22, 9, 71, 60, 51, 38, 56, 89, 109, 25, 30, 58, 126, 121, 127, 119, 124, 114, 63];
Upper_Bound = [70, 72, 99, 49, 25, 57, 116, 85, 101, 43, 87, 63, 85, 37, 70, 95, 52, 102, 61, 71, 78, 68, 21, 74, 9, 78, 23, 27, 122, 27, 89, 89, 86, 54, 119, 135, 107, 110, 109, 129, 63, 48, 67, 31, 30, 31, 13, 22, 14, 6, 25, 37, 0, 25, 25, 8, 51, 56, 24, 16, 23, 111, 31, 31, 103, 111, 111, 101, 22, 26, 50, 60, 69, 53, 25, 17, 16, 22, 9, 71, 60, 51, 38, 56, 89, 109, 25, 30, 58, 126, 121, 127, 119, 124, 114, 63];
Start = 53;
End = 66;
Time = 111;
